NAME = AISearchfile180,
TOURSIZE = 180,
LENGTH = 544090,
46,155,2,56,154,105,153,106,98,45,110,115,166,104,5,28,53,120,31,158,27,163,169,122,80,149,123,69,147,34,23,129,132,100,64,36,126,161,131,139,54,97,20,59,117,51,32,9,67,37,179,178,157,6,62,24,57,92,81,109,73,15,40,116,180,29,4,95,75,79,150,141,47,124,19,63,140,112,91,74,84,82,159,66,48,44,118,114,49,60,72,3,103,156,143,164,145,43,30,177,58,89,21,128,38,83,151,39,25,87,148,17,174,152,125,138,94,162,108,1,135,107,167,113,41,76,171,68,111,170,144,78,85,33,42,119,142,134,133,18,12,137,77,11,86,16,88,101,61,165,176,99,160,71,136,65,70,14,121,52,130,26,173,102,22,93,127,175,50,96,7,10,35,55,168,146,172,90,13,8